NAME: ./prFile/tspFile/tsp_file92.tsp
COMMENT: TSP file generated by Python
TYPE: TSP
DIMENSION: 40
EDGE_WEIGHT_TYPE: EUC_2D
NODE_COORD_SECTION
1 81 8
2 63 61
3 25 18
4 20 84
5 15 72
6 60 50
7 38 20
8 94 48
9 48 6
10 73 71
11 95 62
12 31 58
13 19 36
14 99 18
15 61 68
16 4 36
17 36 89
18 76 87
19 49 71
20 80 9
21 37 38
22 41 68
23 36 80
24 4 68
25 59 60
26 66 74
27 79 90
28 82 83
29 58 7
30 66 65
31 11 92
32 45 27
33 18 30
34 10 59
35 65 82
36 47 92
37 73 43
38 79 36
39 76 64
40 19 72
EOF
